81 92004
47 77 38 4 39 76 52 23 60 10 22 35 49 41 56 42 15 57 53 55 28 36 6 37 70 17 48 71 24 43 7 5 1 62 45 72 80 73 75 59 31 18 78 19 68 29 63 58 21 13 64 44 27 50 40 69 12 2 3 46 11 33 66 30 61 79 14 32 51 20 74 9 67 25 54 81 26 16 34 65 8 
